(set-logic BV) (define-fun origCir ((i_4 Bool) (i_7 Bool) (i_6 Bool) (i_5 Bool) (i_3 Bool)) Bool (and (and (not (and i_7 i_6)) i_4) (xor i_5 i_3))) (synth-fun skel ((i_4 Bool) (i_7 Bool) (i_6 Bool) (i_5 Bool) (i_3 Bool)) Bool) (declare-var i_4 Bool) (declare-var i_7 Bool) (declare-var i_6 Bool) (declare-var i_5 Bool) (declare-var i_3 Bool) (constraint (= (origCir i_4 i_7 i_6 i_5 i_3) (skel i_4 i_7 i_6 i_5 i_3))) (check-synth)
